13
23 45 85 58 66 80 102 3 86 63 99
5 46 70 2 78 38 68 88 104 106
35 10 15 76 24 57
59 90 9 17 22 61 118 107 100 109 60 105
56 77 14 16 48 79 30 94 91
28 55 21 53 84 20 42 82 93 108 117 116
12 18 52 64 41 89 96
13 19 6 65 34
33 44 1 25 62
11 43 8 87 27 83 92 69 111 98 110 101
7 47 31 112 74 39 73 50 54 113
36 40 75 51 67 49 72 37 26 114 103 115 97
4 32 81 29 71 95 119
